param set_len = 14;
param target_sum = 3162432458;
param values := [1] 897320581 [2] 182299751 [3] 71165195 [4] 772790965 [5] 586415703 [6] 159659833 [7] 458518858 [8] 561990047 [9] 9333479 [10] 182394338 [11] 1059866757 [12] 957978927 [13] 73561129 [14] 618281341 ;
